<number of tasks>
89

<cycle time>
137

<task times>
1 28
2 17
3 7
4 10
5 12
6 16
7 13
8 8
9 13
10 24
11 16
12 24
13 12
14 20
15 22
16 22
17 22
18 47
19 6
20 12
21 6
22 22
23 7
24 14
25 68
26 15
27 8
28 74
29 32
30 11
31 18
32 15
33 42
34 27
35 38
36 38
37 26
38 35
39 31
40 8
41 14
42 8
43 8
44 8
45 17
46 7
47 19
48 12
49 24
50 26
51 22
52 14
53 27
54 60
55 4
56 2
57 1
58 9
59 5
60 6
61 7
62 12
63 2
64 11
65 14
66 6
67 21
68 14
69 1
70 6
71 21
72 11
73 14
74 28
75 12
76 11
77 30
78 22
79 14
80 31
81 18
82 16
83 7
84 38
85 8
86 31
87 29
88 12
89 18

<precedence relations>
1,2
2,3
3,4
4,5
4,6
4,7
4,8
4,9
5,10
6,11
7,12
8,18
9,18
10,14
11,12
12,13
13,14
14,15
14,16
15,17
16,54
17,18
18,19
18,20
19,22
20,21
20,28
21,54
22,23
23,24
24,25
25,26
25,27
25,29
26,37
27,33
28,29
29,31
30,54
31,32
32,33
33,34
34,35
35,36
35,37
36,38
37,38
38,39
39,40
39,41
39,42
39,43
40,44
41,53
42,53
43,45
44,52
45,46
46,47
47,48
47,49
49,50
50,51
51,52
52,53
53,68
53,69
53,70
53,71
54,55
55,56
56,57
57,58
57,59
57,60
57,61
57,62
57,63
57,64
57,65
57,66
58,67
59,67
60,67
61,67
62,67
63,67
64,67
65,67
66,67
67,73
68,72
69,72
70,72
71,73
72,78
72,80
73,74
74,75
74,76
75,77
76,81
77,78
78,79
79,81
80,81
81,82
81,84
81,85
82,83
83,86
84,86
85,86
86,87
87,88
87,89

<setup times forward>
1,30:3
2,30:3
3,30:3
4,8:7
4,30:3
5,8:7
5,10:7
5,12:7
5,13:7
5,30:3
6,8:7
6,10:7
6,30:3
7,8:7
7,10:7
7,12:7
7,30:3
8,5:7
8,6:7
8,7:7
8,9:7
8,11:7
8,16:10
8,18:10
8,30:4
9,8:7
9,10:7
9,12:7
9,13:7
9,14:7
9,15:7
9,16:3
9,17:7
9,18:3
9,30:3
10,6:7
10,7:7
10,9:7
10,11:7
10,30:4
11,8:7
11,10:7
11,12:7
11,30:3
12,5:7
12,9:7
12,30:4
13,5:7
13,9:7
13,30:4
14,9:7
14,16:10
14,30:4
15,9:7
15,16:10
15,30:4
16,8:10
16,9:3
16,15:10
16,17:10
16,25:6
16,26:6
16,27:6
16,28:5
16,29:5
16,30:6
16,31:5
16,32:1
16,33:1
16,34:1
16,35:1
16,36:3
16,37:3
16,38:3
16,39:3
16,40:7
16,41:7
16,42:7
16,43:3
16,44:7
16,45:3
16,46:3
16,47:3
16,49:3
16,50:7
16,51:7
16,52:7
16,54:3
16,68:5
16,69:5
16,70:5
16,71:5
16,72:5
16,80:5
17,9:7
17,16:10
17,18:10
17,30:4
18,30:6
19,28:5
19,30:6
19,54:3
19,55:7
19,56:7
19,57:7
19,62:7
19,63:7
19,65:7
20,25:6
20,26:6
20,27:6
20,28:5
20,30:6
21,25:6
21,26:6
21,27:6
21,28:5
21,29:5
21,30:6
21,31:5
21,32:1
21,33:1
21,34:1
21,35:1
21,36:3
21,37:3
21,38:3
21,39:3
21,40:7
21,41:7
21,42:7
21,43:3
21,44:7
21,45:3
21,46:3
21,47:3
21,49:3
21,50:7
21,51:7
21,52:7
21,54:3
21,68:5
21,69:5
21,70:5
21,71:5
21,72:5
21,80:5
22,28:5
22,30:6
22,54:3
22,55:7
22,56:7
22,57:7
22,62:7
22,63:7
22,65:7
23,28:5
23,30:6
23,54:3
23,55:7
23,56:7
23,57:7
23,62:7
23,63:7
23,65:7
24,25:6
24,28:5
24,30:6
24,54:3
24,55:7
24,56:7
24,57:7
24,62:7
24,63:7
24,65:7
25,16:6
25,20:6
25,21:6
25,28:1
25,29:1
25,54:9
25,55:1
25,56:1
25,57:1
25,58:6
25,59:6
25,60:6
25,61:6
25,62:1
25,63:1
25,64:6
25,65:1
25,66:6
25,67:6
26,16:6
26,20:6
26,21:6
26,28:1
26,29:1
26,31:1
26,32:7
26,33:7
26,34:7
26,35:7
26,36:3
26,37:3
26,54:9
26,55:1
26,56:1
26,57:1
26,58:6
26,59:6
26,60:6
26,61:6
26,62:1
26,63:1
26,64:6
26,65:1
26,66:6
26,67:6
27,16:6
27,20:6
27,21:6
27,28:1
27,29:1
27,31:1
27,32:7
27,33:7
27,54:9
27,55:1
27,56:1
27,57:1
27,58:6
27,59:6
27,60:6
27,61:6
27,62:1
27,63:1
27,64:6
27,65:1
27,66:6
27,67:6
28,16:5
28,19:5
28,21:5
28,22:5
28,23:5
28,24:5
28,25:1
28,26:1
28,27:1
28,30:1
28,54:8
28,55:2
28,56:2
28,57:2
28,58:5
28,59:5
28,60:5
28,61:5
28,62:2
28,63:2
28,64:5
28,65:2
28,66:5
28,67:5
29,16:5
29,21:5
29,26:1
29,27:1
29,30:1
29,54:8
29,55:2
29,56:2
29,57:2
29,58:5
29,59:5
29,60:5
29,61:5
29,62:2
29,63:2
29,64:5
29,65:2
29,66:5
29,67:5
30,1:3
30,2:3
30,3:3
30,4:3
30,5:3
30,6:3
30,7:3
30,8:4
30,9:3
30,10:4
30,11:3
30,12:4
30,13:4
30,14:4
30,15:4
30,16:6
30,17:4
30,18:6
30,19:6
30,20:6
30,21:6
30,22:6
30,23:6
30,24:6
30,28:1
30,29:1
30,31:1
30,32:7
30,33:7
30,34:7
30,35:7
30,36:3
30,37:3
30,38:3
30,39:3
30,40:1
30,41:1
30,42:1
30,43:9
30,44:1
30,45:9
30,46:9
30,47:9
30,48:6
30,49:9
30,50:1
30,51:1
30,52:1
30,53:6
30,54:9
30,68:11
30,69:11
30,70:11
30,71:11
30,72:11
30,80:11
31,16:5
31,21:5
31,26:1
31,27:1
31,30:1
31,32:6
31,54:8
31,55:2
31,56:2
31,57:2
31,58:5
31,59:5
31,60:5
31,61:5
31,62:2
31,63:2
31,64:5
31,65:2
31,66:5
31,67:5
32,16:1
32,21:1
32,26:7
32,27:7
32,30:7
32,54:2
32,55:8
32,56:8
32,57:8
32,58:1
32,59:1
32,60:1
32,61:1
32,62:8
32,63:8
32,64:1
32,65:8
32,66:1
32,67:1
33,16:1
33,21:1
33,26:7
33,30:7
33,54:2
33,55:8
33,56:8
33,57:8
33,58:1
33,59:1
33,60:1
33,61:1
33,62:8
33,63:8
33,64:1
33,65:8
33,66:1
33,67:1
34,16:1
34,21:1
34,26:7
34,30:7
34,54:2
34,55:8
34,56:8
34,57:8
34,58:1
34,59:1
34,60:1
34,61:1
34,62:8
34,63:8
34,64:1
34,65:8
34,66:1
34,67:1
35,16:1
35,21:1
35,26:7
35,30:7
35,36:4
35,37:4
35,54:2
35,55:8
35,56:8
35,57:8
35,58:1
35,59:1
35,60:1
35,61:1
35,62:8
35,63:8
35,64:1
35,65:8
35,66:1
35,67:1
36,16:3
36,21:3
36,26:3
36,30:3
36,54:6
36,55:4
36,56:4
36,57:4
36,58:3
36,59:3
36,60:3
36,61:3
36,62:4
36,63:4
36,64:3
36,65:4
36,66:3
36,67:3
37,16:3
37,21:3
37,30:3
37,54:6
37,55:4
37,56:4
37,57:4
37,58:3
37,59:3
37,60:3
37,61:3
37,62:4
37,63:4
37,64:3
37,65:4
37,66:3
37,67:3
38,16:3
38,21:3
38,30:3
38,54:6
38,55:4
38,56:4
38,57:4
38,58:3
38,59:3
38,60:3
38,61:3
38,62:4
38,63:4
38,64:3
38,65:4
38,66:3
38,67:3
39,16:3
39,21:3
39,30:3
39,40:4
39,41:4
39,42:4
39,43:6
39,54:6
39,55:4
39,56:4
39,57:4
39,58:3
39,59:3
39,60:3
39,61:3
39,62:4
39,63:4
39,64:3
39,65:4
39,66:3
39,67:3
40,16:7
40,21:7
40,30:1
40,43:10
40,45:10
40,46:10
40,47:10
40,48:7
40,49:10
40,54:10
40,58:7
40,59:7
40,60:7
40,61:7
40,64:7
40,66:7
40,67:7
41,16:7
41,21:7
41,30:1
41,43:10
41,45:10
41,46:10
41,47:10
41,48:7
41,49:10
41,53:7
41,54:10
41,58:7
41,59:7
41,60:7
41,61:7
41,64:7
41,66:7
41,67:7
42,16:7
42,21:7
42,30:1
42,43:10
42,45:10
42,46:10
42,47:10
42,48:7
42,49:10
42,53:7
42,54:10
42,58:7
42,59:7
42,60:7
42,61:7
42,64:7
42,66:7
42,67:7
43,16:3
43,21:3
43,30:9
43,40:10
43,41:10
43,42:10
43,44:10
43,55:10
43,56:10
43,57:10
43,58:3
43,59:3
43,60:3
43,61:3
43,62:10
43,63:10
43,64:3
43,65:10
43,66:3
43,67:3
44,16:7
44,21:7
44,30:1
44,43:10
44,45:10
44,46:10
44,47:10
44,48:7
44,49:10
44,54:10
44,58:7
44,59:7
44,60:7
44,61:7
44,64:7
44,66:7
44,67:7
45,16:3
45,21:3
45,30:9
45,40:10
45,41:10
45,42:10
45,44:10
45,55:10
45,56:10
45,57:10
45,58:3
45,59:3
45,60:3
45,61:3
45,62:10
45,63:10
45,64:3
45,65:10
45,66:3
45,67:3
46,16:3
46,21:3
46,30:9
46,40:10
46,41:10
46,42:10
46,44:10
46,55:10
46,56:10
46,57:10
46,58:3
46,59:3
46,60:3
46,61:3
46,62:10
46,63:10
46,64:3
46,65:10
46,66:3
46,67:3
47,16:3
47,21:3
47,30:9
47,40:10
47,41:10
47,42:10
47,44:10
47,48:3
47,55:10
47,56:10
47,57:10
47,58:3
47,59:3
47,60:3
47,61:3
47,62:10
47,63:10
47,64:3
47,65:10
47,66:3
47,67:3
48,30:6
48,40:7
48,41:7
48,42:7
48,44:7
48,49:3
48,50:7
48,51:7
48,52:7
48,54:3
48,55:7
48,56:7
48,57:7
48,62:7
48,63:7
48,65:7
48,68:5
48,69:5
48,70:5
48,71:5
48,72:5
48,73:5
48,74:5
48,75:2
48,76:2
48,77:2
48,78:2
48,79:2
48,80:5
48,81:2
48,82:2
48,83:5
48,84:5
48,85:2
48,86:5
48,87:5
48,88:5
48,89:5
49,16:3
49,21:3
49,30:9
49,40:10
49,41:10
49,42:10
49,44:10
49,48:3
49,50:10
49,55:10
49,56:10
49,57:10
49,58:3
49,59:3
49,60:3
49,61:3
49,62:10
49,63:10
49,64:3
49,65:10
49,66:3
49,67:3
50,16:7
50,21:7
50,30:1
50,48:7
50,54:10
50,58:7
50,59:7
50,60:7
50,61:7
50,64:7
50,66:7
50,67:7
51,16:7
51,21:7
51,30:1
51,48:7
51,54:10
51,58:7
51,59:7
51,60:7
51,61:7
51,64:7
51,66:7
51,67:7
52,16:7
52,21:7
52,30:1
52,48:7
52,53:7
52,54:10
52,58:7
52,59:7
52,60:7
52,61:7
52,64:7
52,66:7
52,67:7
53,30:6
53,54:3
53,55:7
53,56:7
53,57:7
53,62:7
53,63:7
53,65:7
53,68:5
53,69:5
53,70:5
53,71:5
54,19:3
54,22:3
54,23:3
54,24:3
54,25:9
54,26:9
54,27:9
54,28:8
54,29:8
54,31:8
54,32:2
54,33:2
54,34:2
54,35:2
54,36:6
54,37:6
54,38:6
54,39:6
54,40:10
54,41:10
54,42:10
54,44:10
54,48:3
54,50:10
54,51:10
54,52:10
54,53:3
54,55:10
54,68:2
54,69:2
54,70:2
54,71:2
54,72:2
54,80:2
55,19:7
55,22:7
55,23:7
55,24:7
55,25:1
55,26:1
55,27:1
55,28:2
55,29:2
55,31:2
55,32:8
55,33:8
55,34:8
55,35:8
55,36:4
55,37:4
55,38:4
55,39:4
55,43:10
55,45:10
55,46:10
55,47:10
55,48:7
55,49:10
55,53:7
55,68:12
55,69:12
55,70:12
55,71:12
55,72:12
55,80:12
56,19:7
56,22:7
56,23:7
56,24:7
56,25:1
56,26:1
56,27:1
56,28:2
56,29:2
56,31:2
56,32:8
56,33:8
56,34:8
56,35:8
56,36:4
56,37:4
56,38:4
56,39:4
56,43:10
56,45:10
56,46:10
56,47:10
56,48:7
56,49:10
56,53:7
56,68:12
56,69:12
56,70:12
56,71:12
56,72:12
56,80:12
57,19:7
57,22:7
57,23:7
57,24:7
57,25:1
57,26:1
57,27:1
57,28:2
57,29:2
57,31:2
57,32:8
57,33:8
57,34:8
57,35:8
57,36:4
57,37:4
57,38:4
57,39:4
57,43:10
57,45:10
57,46:10
57,47:10
57,48:7
57,49:10
57,53:7
57,58:7
57,59:7
57,60:7
57,61:7
57,64:7
57,66:7
57,68:12
57,69:12
57,70:12
57,71:12
57,72:12
57,80:12
58,25:6
58,26:6
58,27:6
58,28:5
58,29:5
58,31:5
58,32:1
58,33:1
58,34:1
58,35:1
58,36:3
58,37:3
58,38:3
58,39:3
58,40:7
58,41:7
58,42:7
58,43:3
58,44:7
58,45:3
58,46:3
58,47:3
58,49:3
58,50:7
58,51:7
58,52:7
58,62:7
58,63:7
58,65:7
58,68:5
58,69:5
58,70:5
58,71:5
58,72:5
58,80:5
59,25:6
59,26:6
59,27:6
59,28:5
59,29:5
59,31:5
59,32:1
59,33:1
59,34:1
59,35:1
59,36:3
59,37:3
59,38:3
59,39:3
59,40:7
59,41:7
59,42:7
59,43:3
59,44:7
59,45:3
59,46:3
59,47:3
59,49:3
59,50:7
59,51:7
59,52:7
59,62:7
59,63:7
59,65:7
59,68:5
59,69:5
59,70:5
59,71:5
59,72:5
59,80:5
60,25:6
60,26:6
60,27:6
60,28:5
60,29:5
60,31:5
60,32:1
60,33:1
60,34:1
60,35:1
60,36:3
60,37:3
60,38:3
60,39:3
60,40:7
60,41:7
60,42:7
60,43:3
60,44:7
60,45:3
60,46:3
60,47:3
60,49:3
60,50:7
60,51:7
60,52:7
60,62:7
60,63:7
60,65:7
60,68:5
60,69:5
60,70:5
60,71:5
60,72:5
60,80:5
61,25:6
61,26:6
61,27:6
61,28:5
61,29:5
61,31:5
61,32:1
61,33:1
61,34:1
61,35:1
61,36:3
61,37:3
61,38:3
61,39:3
61,40:7
61,41:7
61,42:7
61,43:3
61,44:7
61,45:3
61,46:3
61,47:3
61,49:3
61,50:7
61,51:7
61,52:7
61,62:7
61,63:7
61,65:7
61,68:5
61,69:5
61,70:5
61,71:5
61,72:5
61,80:5
62,19:7
62,22:7
62,23:7
62,24:7
62,25:1
62,26:1
62,27:1
62,28:2
62,29:2
62,31:2
62,32:8
62,33:8
62,34:8
62,35:8
62,36:4
62,37:4
62,38:4
62,39:4
62,43:10
62,45:10
62,46:10
62,47:10
62,48:7
62,49:10
62,53:7
62,58:7
62,59:7
62,60:7
62,61:7
62,64:7
62,66:7
62,67:7
62,68:12
62,69:12
62,70:12
62,71:12
62,72:12
62,80:12
63,19:7
63,22:7
63,23:7
63,24:7
63,25:1
63,26:1
63,27:1
63,28:2
63,29:2
63,31:2
63,32:8
63,33:8
63,34:8
63,35:8
63,36:4
63,37:4
63,38:4
63,39:4
63,43:10
63,45:10
63,46:10
63,47:10
63,48:7
63,49:10
63,53:7
63,58:7
63,59:7
63,60:7
63,61:7
63,64:7
63,66:7
63,67:7
63,68:12
63,69:12
63,70:12
63,71:12
63,72:12
63,80:12
64,25:6
64,26:6
64,27:6
64,28:5
64,29:5
64,31:5
64,32:1
64,33:1
64,34:1
64,35:1
64,36:3
64,37:3
64,38:3
64,39:3
64,40:7
64,41:7
64,42:7
64,43:3
64,44:7
64,45:3
64,46:3
64,47:3
64,49:3
64,50:7
64,51:7
64,52:7
64,62:7
64,63:7
64,65:7
64,68:5
64,69:5
64,70:5
64,71:5
64,72:5
64,80:5
65,19:7
65,22:7
65,23:7
65,24:7
65,25:1
65,26:1
65,27:1
65,28:2
65,29:2
65,31:2
65,32:8
65,33:8
65,34:8
65,35:8
65,36:4
65,37:4
65,38:4
65,39:4
65,43:10
65,45:10
65,46:10
65,47:10
65,48:7
65,49:10
65,53:7
65,58:7
65,59:7
65,60:7
65,61:7
65,64:7
65,66:7
65,67:7
65,68:12
65,69:12
65,70:12
65,71:12
65,72:12
65,80:12
66,25:6
66,26:6
66,27:6
66,28:5
66,29:5
66,31:5
66,32:1
66,33:1
66,34:1
66,35:1
66,36:3
66,37:3
66,38:3
66,39:3
66,40:7
66,41:7
66,42:7
66,43:3
66,44:7
66,45:3
66,46:3
66,47:3
66,49:3
66,50:7
66,51:7
66,52:7
66,62:7
66,63:7
66,65:7
66,68:5
66,69:5
66,70:5
66,71:5
66,72:5
66,80:5
67,25:6
67,26:6
67,27:6
67,28:5
67,29:5
67,31:5
67,32:1
67,33:1
67,34:1
67,35:1
67,36:3
67,37:3
67,38:3
67,39:3
67,40:7
67,41:7
67,42:7
67,43:3
67,44:7
67,45:3
67,46:3
67,47:3
67,49:3
67,50:7
67,51:7
67,52:7
67,68:5
67,69:5
67,70:5
67,71:5
67,72:5
67,73:5
67,80:5
68,16:5
68,21:5
68,30:11
68,48:5
68,54:2
68,55:12
68,56:12
68,57:12
68,58:5
68,59:5
68,60:5
68,61:5
68,62:12
68,63:12
68,64:5
68,65:12
68,66:5
68,67:5
68,75:7
68,76:7
68,77:7
69,16:5
69,21:5
69,30:11
69,48:5
69,54:2
69,55:12
69,56:12
69,57:12
69,58:5
69,59:5
69,60:5
69,61:5
69,62:12
69,63:12
69,64:5
69,65:12
69,66:5
69,67:5
69,75:7
69,76:7
69,77:7
70,16:5
70,21:5
70,30:11
70,48:5
70,54:2
70,55:12
70,56:12
70,57:12
70,58:5
70,59:5
70,60:5
70,61:5
70,62:12
70,63:12
70,64:5
70,65:12
70,66:5
70,67:5
70,75:7
70,76:7
70,77:7
71,16:5
71,21:5
71,30:11
71,48:5
71,54:2
71,55:12
71,56:12
71,57:12
71,58:5
71,59:5
71,60:5
71,61:5
71,62:12
71,63:12
71,64:5
71,65:12
71,66:5
71,67:5
72,16:5
72,21:5
72,30:11
72,48:5
72,54:2
72,55:12
72,56:12
72,57:12
72,58:5
72,59:5
72,60:5
72,61:5
72,62:12
72,63:12
72,64:5
72,65:12
72,66:5
72,67:5
72,75:7
72,76:7
72,77:7
72,78:7
73,48:5
74,48:5
74,75:7
74,76:7
75,48:2
75,68:7
75,69:7
75,70:7
75,72:7
75,80:7
76,48:2
76,68:7
76,69:7
76,70:7
76,72:7
76,80:7
77,48:2
77,68:7
77,69:7
77,70:7
77,72:7
77,80:7
78,48:2
78,80:7
79,48:2
79,80:7
80,16:5
80,21:5
80,30:11
80,48:5
80,54:2
80,55:12
80,56:12
80,57:12
80,58:5
80,59:5
80,60:5
80,61:5
80,62:12
80,63:12
80,64:5
80,65:12
80,66:5
80,67:5
80,75:7
80,76:7
80,77:7
80,78:7
80,79:7
80,81:7
81,48:2
81,84:3
82,48:2
82,83:3
82,84:3
83,48:5
83,85:3
84,48:5
84,82:3
84,85:3
85,48:2
85,83:3
85,84:3
85,86:3
86,48:5
87,48:5
88,48:5
89,48:5

<setup times backward>
1,1:1
2,1:1
2,2:1
3,1:1
3,2:1
3,3:1
4,1:1
4,2:1
4,3:1
4,4:1
5,1:1
5,2:1
5,3:1
5,4:1
5,5:1
5,6:1
5,7:1
5,9:1
5,11:1
6,1:1
6,2:1
6,3:1
6,4:1
6,5:1
6,6:1
6,7:1
6,9:1
7,1:1
7,2:1
7,3:1
7,4:1
7,5:1
7,6:1
7,7:1
7,9:1
7,11:1
8,1:8
8,2:8
8,3:8
8,4:8
8,5:8
8,6:8
8,7:8
8,8:1
8,9:8
8,10:1
8,11:8
8,12:1
8,13:1
8,14:1
8,15:1
8,16:11
8,17:1
8,30:5
9,1:1
9,2:1
9,3:1
9,4:1
9,5:1
9,6:1
9,7:1
9,9:1
9,11:1
9,16:4
10,1:8
10,2:8
10,3:8
10,4:8
10,5:8
10,6:8
10,7:8
10,8:1
10,9:8
10,10:1
10,11:8
10,12:1
10,13:1
10,30:5
11,1:1
11,2:1
11,3:1
11,4:1
11,5:1
11,6:1
11,7:1
11,9:1
11,11:1
12,1:8
12,2:8
12,3:8
12,4:8
12,5:8
12,6:8
12,7:8
12,8:1
12,9:8
12,10:1
12,11:8
12,12:1
12,30:5
13,1:8
13,2:8
13,3:8
13,4:8
13,5:8
13,6:8
13,7:8
13,8:1
13,9:8
13,10:1
13,11:8
13,12:1
13,13:1
13,30:5
14,1:8
14,2:8
14,3:8
14,4:8
14,5:8
14,6:8
14,7:8
14,8:1
14,9:8
14,10:1
14,11:8
14,12:1
14,13:1
14,14:1
14,30:5
15,1:8
15,2:8
15,3:8
15,4:8
15,5:8
15,6:8
15,7:8
15,8:1
15,9:8
15,10:1
15,11:8
15,12:1
15,13:1
15,14:1
15,15:1
15,16:11
15,30:5
16,16:1
16,18:1
16,19:1
16,20:1
16,21:1
16,22:1
16,23:1
16,24:1
16,32:2
16,33:2
16,34:2
16,35:2
16,43:4
16,45:4
16,46:4
16,47:4
16,48:1
16,49:4
16,53:1
16,68:6
16,69:6
16,70:6
16,71:6
16,72:6
16,80:6
17,1:8
17,2:8
17,3:8
17,4:8
17,5:8
17,6:8
17,7:8
17,8:1
17,9:8
17,10:1
17,11:8
17,12:1
17,13:1
17,14:1
17,15:1
17,16:11
17,17:1
17,30:5
18,16:1
18,18:1
19,16:1
19,18:1
19,19:1
19,20:1
19,21:1
19,54:4
19,58:1
19,59:1
19,60:1
19,61:1
19,64:1
19,66:1
19,67:1
20,16:1
20,18:1
20,19:1
20,20:1
20,22:1
20,23:1
20,24:1
21,16:1
21,18:1
21,19:1
21,20:1
21,21:1
21,22:1
21,23:1
21,24:1
21,32:2
21,33:2
21,34:2
21,35:2
21,43:4
21,45:4
21,46:4
21,47:4
21,48:1
21,49:4
21,53:1
21,68:6
21,69:6
21,70:6
21,71:6
21,72:6
21,80:6
22,16:1
22,18:1
22,19:1
22,20:1
22,21:1
22,22:1
22,54:4
22,58:1
22,59:1
22,60:1
22,61:1
22,64:1
22,66:1
22,67:1
23,16:1
23,18:1
23,19:1
23,20:1
23,21:1
23,22:1
23,23:1
23,54:4
23,58:1
23,59:1
23,60:1
23,61:1
23,64:1
23,66:1
23,67:1
24,16:1
24,18:1
24,19:1
24,20:1
24,21:1
24,22:1
24,23:1
24,24:1
24,54:4
24,58:1
24,59:1
24,60:1
24,61:1
24,64:1
24,66:1
24,67:1
25,1:4
25,2:4
25,3:4
25,4:4
25,5:4
25,6:4
25,7:4
25,9:4
25,11:4
25,16:7
25,18:7
25,19:7
25,20:7
25,21:7
25,22:7
25,23:7
25,24:7
25,25:1
25,28:2
25,30:1
25,54:10
25,58:7
25,59:7
25,60:7
25,61:7
25,64:7
25,66:7
25,67:7
26,1:4
26,2:4
26,3:4
26,4:4
26,5:4
26,6:4
26,7:4
26,9:4
26,11:4
26,16:7
26,18:7
26,19:7
26,20:7
26,21:7
26,22:7
26,23:7
26,24:7
26,25:1
26,26:1
26,27:1
26,28:2
26,29:2
26,30:1
26,31:2
26,32:8
26,33:8
26,34:8
26,35:8
26,36:4
26,54:10
26,58:7
26,59:7
26,60:7
26,61:7
26,64:7
26,66:7
26,67:7
27,1:4
27,2:4
27,3:4
27,4:4
27,5:4
27,6:4
27,7:4
27,9:4
27,11:4
27,16:7
27,18:7
27,19:7
27,20:7
27,21:7
27,22:7
27,23:7
27,24:7
27,25:1
27,26:1
27,27:1
27,28:2
27,29:2
27,30:1
27,31:2
27,32:8
27,54:10
27,58:7
27,59:7
27,60:7
27,61:7
27,64:7
27,66:7
27,67:7
28,1:3
28,2:3
28,3:3
28,4:3
28,5:3
28,6:3
28,7:3
28,9:3
28,11:3
28,16:6
28,18:6
28,19:6
28,20:6
28,21:6
28,22:6
28,23:6
28,24:6
28,28:1
28,54:9
28,58:6
28,59:6
28,60:6
28,61:6
28,64:6
28,66:6
28,67:6
29,1:3
29,2:3
29,3:3
29,4:3
29,5:3
29,6:3
29,7:3
29,9:3
29,11:3
29,16:6
29,18:6
29,19:6
29,20:6
29,21:6
29,22:6
29,23:6
29,24:6
29,28:1
29,29:1
29,54:9
29,58:6
29,59:6
29,60:6
29,61:6
29,64:6
29,66:6
29,67:6
30,1:4
30,2:4
30,3:4
30,4:4
30,5:4
30,6:4
30,7:4
30,9:4
30,11:4
30,16:7
30,18:7
30,19:7
30,20:7
30,21:7
30,22:7
30,23:7
30,24:7
30,25:1
30,26:1
30,27:1
30,28:2
30,29:2
30,30:1
30,31:2
30,32:8
30,33:8
30,34:8
30,35:8
30,36:4
30,37:4
30,38:4
30,39:4
30,43:10
30,45:10
30,46:10
30,47:10
30,48:7
30,49:10
30,53:7
30,68:12
30,69:12
30,70:12
30,71:12
30,72:12
30,80:12
31,1:3
31,2:3
31,3:3
31,4:3
31,5:3
31,6:3
31,7:3
31,9:3
31,11:3
31,16:6
31,18:6
31,19:6
31,20:6
31,21:6
31,22:6
31,23:6
31,24:6
31,28:1
31,29:1
31,31:1
31,54:9
31,58:6
31,59:6
31,60:6
31,61:6
31,64:6
31,66:6
31,67:6
32,32:1
32,54:3
33,32:1
33,33:1
33,54:3
34,32:1
34,33:1
34,34:1
34,54:3
35,32:1
35,33:1
35,34:1
35,35:1
35,54:3
36,1:1
36,2:1
36,3:1
36,4:1
36,5:1
36,6:1
36,7:1
36,9:1
36,11:1
36,16:4
36,18:4
36,19:4
36,20:4
36,21:4
36,22:4
36,23:4
36,24:4
36,32:5
36,33:5
36,34:5
36,35:5
36,36:1
36,37:1
36,54:7
36,58:4
36,59:4
36,60:4
36,61:4
36,64:4
36,66:4
36,67:4
37,1:1
37,2:1
37,3:1
37,4:1
37,5:1
37,6:1
37,7:1
37,9:1
37,11:1
37,16:4
37,18:4
37,19:4
37,20:4
37,21:4
37,22:4
37,23:4
37,24:4
37,32:5
37,33:5
37,34:5
37,35:5
37,36:1
37,37:1
37,54:7
37,58:4
37,59:4
37,60:4
37,61:4
37,64:4
37,66:4
37,67:4
38,1:1
38,2:1
38,3:1
38,4:1
38,5:1
38,6:1
38,7:1
38,9:1
38,11:1
38,16:4
38,18:4
38,19:4
38,20:4
38,21:4
38,22:4
38,23:4
38,24:4
38,32:5
38,33:5
38,34:5
38,35:5
38,36:1
38,37:1
38,38:1
38,54:7
38,58:4
38,59:4
38,60:4
38,61:4
38,64:4
38,66:4
38,67:4
39,1:1
39,2:1
39,3:1
39,4:1
39,5:1
39,6:1
39,7:1
39,9:1
39,11:1
39,16:4
39,18:4
39,19:4
39,20:4
39,21:4
39,22:4
39,23:4
39,24:4
39,32:5
39,33:5
39,34:5
39,35:5
39,36:1
39,37:1
39,38:1
39,39:1
39,54:7
39,58:4
39,59:4
39,60:4
39,61:4
39,64:4
39,66:4
39,67:4
40,1:5
40,2:5
40,3:5
40,4:5
40,5:5
40,6:5
40,7:5
40,9:5
40,11:5
40,16:8
40,18:8
40,19:8
40,20:8
40,21:8
40,22:8
40,23:8
40,24:8
40,25:2
40,26:2
40,27:2
40,28:3
40,29:3
40,30:2
40,31:3
40,32:9
40,33:9
40,34:9
40,35:9
40,36:5
40,37:5
40,38:5
40,39:5
40,40:1
40,41:1
40,42:1
40,43:11
40,45:11
40,46:11
40,47:11
40,48:8
40,49:11
40,50:1
40,51:1
40,54:11
40,55:1
40,56:1
40,57:1
40,58:8
40,59:8
40,60:8
40,61:8
40,62:1
40,63:1
40,64:8
40,65:1
40,66:8
40,67:8
41,1:5
41,2:5
41,3:5
41,4:5
41,5:5
41,6:5
41,7:5
41,9:5
41,11:5
41,16:8
41,18:8
41,19:8
41,20:8
41,21:8
41,22:8
41,23:8
41,24:8
41,25:2
41,26:2
41,27:2
41,28:3
41,29:3
41,30:2
41,31:3
41,32:9
41,33:9
41,34:9
41,35:9
41,36:5
41,37:5
41,38:5
41,39:5
41,40:1
41,41:1
41,42:1
41,43:11
41,44:1
41,45:11
41,46:11
41,47:11
41,48:8
41,49:11
41,50:1
41,51:1
41,52:1
41,54:11
41,55:1
41,56:1
41,57:1
41,58:8
41,59:8
41,60:8
41,61:8
41,62:1
41,63:1
41,64:8
41,65:1
41,66:8
41,67:8
42,1:5
42,2:5
42,3:5
42,4:5
42,5:5
42,6:5
42,7:5
42,9:5
42,11:5
42,16:8
42,18:8
42,19:8
42,20:8
42,21:8
42,22:8
42,23:8
42,24:8
42,25:2
42,26:2
42,27:2
42,28:3
42,29:3
42,30:2
42,31:3
42,32:9
42,33:9
42,34:9
42,35:9
42,36:5
42,37:5
42,38:5
42,39:5
42,40:1
42,41:1
42,42:1
42,43:11
42,44:1
42,45:11
42,46:11
42,47:11
42,48:8
42,49:11
42,50:1
42,51:1
42,52:1
42,54:11
42,55:1
42,56:1
42,57:1
42,58:8
42,59:8
42,60:8
42,61:8
42,62:1
42,63:1
42,64:8
42,65:1
42,66:8
42,67:8
43,43:1
43,54:1
44,1:5
44,2:5
44,3:5
44,4:5
44,5:5
44,6:5
44,7:5
44,9:5
44,11:5
44,16:8
44,18:8
44,19:8
44,20:8
44,21:8
44,22:8
44,23:8
44,24:8
44,25:2
44,26:2
44,27:2
44,28:3
44,29:3
44,30:2
44,31:3
44,32:9
44,33:9
44,34:9
44,35:9
44,36:5
44,37:5
44,38:5
44,39:5
44,40:1
44,41:1
44,42:1
44,43:11
44,44:1
44,45:11
44,46:11
44,47:11
44,48:8
44,49:11
44,50:1
44,51:1
44,54:11
44,55:1
44,56:1
44,57:1
44,58:8
44,59:8
44,60:8
44,61:8
44,62:1
44,63:1
44,64:8
44,65:1
44,66:8
44,67:8
45,43:1
45,45:1
45,54:1
46,43:1
46,45:1
46,46:1
46,54:1
47,43:1
47,45:1
47,46:1
47,47:1
47,54:1
48,16:1
48,18:1
48,19:1
48,20:1
48,21:1
48,22:1
48,23:1
48,24:1
48,32:2
48,33:2
48,34:2
48,35:2
48,43:4
48,45:4
48,46:4
48,47:4
48,48:1
48,49:4
48,53:1
48,54:4
48,58:1
48,59:1
48,60:1
48,61:1
48,64:1
48,66:1
48,67:1
48,68:6
48,69:6
48,70:6
48,71:6
48,72:6
48,73:6
48,74:6
48,80:6
49,43:1
49,45:1
49,46:1
49,47:1
49,49:1
49,54:1
50,1:5
50,2:5
50,3:5
50,4:5
50,5:5
50,6:5
50,7:5
50,9:5
50,11:5
50,16:8
50,18:8
50,19:8
50,20:8
50,21:8
50,22:8
50,23:8
50,24:8
50,25:2
50,26:2
50,27:2
50,28:3
50,29:3
50,30:2
50,31:3
50,32:9
50,33:9
50,34:9
50,35:9
50,36:5
50,37:5
50,38:5
50,39:5
50,40:1
50,41:1
50,42:1
50,43:11
50,44:1
50,45:11
50,46:11
50,47:11
50,48:8
50,49:11
50,50:1
50,54:11
50,55:1
50,56:1
50,57:1
50,58:8
50,59:8
50,60:8
50,61:8
50,62:1
50,63:1
50,64:8
50,65:1
50,66:8
50,67:8
51,1:5
51,2:5
51,3:5
51,4:5
51,5:5
51,6:5
51,7:5
51,9:5
51,11:5
51,16:8
51,18:8
51,19:8
51,20:8
51,21:8
51,22:8
51,23:8
51,24:8
51,25:2
51,26:2
51,27:2
51,28:3
51,29:3
51,30:2
51,31:3
51,32:9
51,33:9
51,34:9
51,35:9
51,36:5
51,37:5
51,38:5
51,39:5
51,40:1
51,41:1
51,42:1
51,43:11
51,44:1
51,45:11
51,46:11
51,47:11
51,48:8
51,49:11
51,50:1
51,51:1
51,54:11
51,55:1
51,56:1
51,57:1
51,58:8
51,59:8
51,60:8
51,61:8
51,62:1
51,63:1
51,64:8
51,65:1
51,66:8
51,67:8
52,1:5
52,2:5
52,3:5
52,4:5
52,5:5
52,6:5
52,7:5
52,9:5
52,11:5
52,16:8
52,18:8
52,19:8
52,20:8
52,21:8
52,22:8
52,23:8
52,24:8
52,25:2
52,26:2
52,27:2
52,28:3
52,29:3
52,30:2
52,31:3
52,32:9
52,33:9
52,34:9
52,35:9
52,36:5
52,37:5
52,38:5
52,39:5
52,40:1
52,41:1
52,42:1
52,43:11
52,44:1
52,45:11
52,46:11
52,47:11
52,48:8
52,49:11
52,50:1
52,51:1
52,52:1
52,54:11
52,55:1
52,56:1
52,57:1
52,58:8
52,59:8
52,60:8
52,61:8
52,62:1
52,63:1
52,64:8
52,65:1
52,66:8
52,67:8
53,16:1
53,18:1
53,19:1
53,20:1
53,21:1
53,22:1
53,23:1
53,24:1
53,32:2
53,33:2
53,34:2
53,35:2
53,43:4
53,45:4
53,46:4
53,47:4
53,48:1
53,49:4
53,53:1
53,54:4
53,58:1
53,59:1
53,60:1
53,61:1
53,64:1
53,66:1
53,67:1
54,43:1
54,45:1
54,46:1
54,47:1
54,49:1
54,54:1
54,68:3
54,69:3
54,70:3
54,71:3
54,72:3
54,80:3
55,1:5
55,2:5
55,3:5
55,4:5
55,5:5
55,6:5
55,7:5
55,9:5
55,11:5
55,16:8
55,18:8
55,19:8
55,20:8
55,21:8
55,22:8
55,23:8
55,24:8
55,25:2
55,26:2
55,27:2
55,28:3
55,29:3
55,30:2
55,31:3
55,32:9
55,33:9
55,34:9
55,35:9
55,36:5
55,37:5
55,38:5
55,39:5
55,40:1
55,41:1
55,42:1
55,43:11
55,44:1
55,45:11
55,46:11
55,47:11
55,48:8
55,49:11
55,50:1
55,51:1
55,52:1
55,53:8
55,54:11
55,55:1
55,68:13
55,69:13
55,70:13
55,71:13
55,72:13
55,80:13
56,1:5
56,2:5
56,3:5
56,4:5
56,5:5
56,6:5
56,7:5
56,9:5
56,11:5
56,16:8
56,18:8
56,19:8
56,20:8
56,21:8
56,22:8
56,23:8
56,24:8
56,25:2
56,26:2
56,27:2
56,28:3
56,29:3
56,30:2
56,31:3
56,32:9
56,33:9
56,34:9
56,35:9
56,36:5
56,37:5
56,38:5
56,39:5
56,40:1
56,41:1
56,42:1
56,43:11
56,44:1
56,45:11
56,46:11
56,47:11
56,48:8
56,49:11
56,50:1
56,51:1
56,52:1
56,53:8
56,54:11
56,55:1
56,56:1
56,68:13
56,69:13
56,70:13
56,71:13
56,72:13
56,80:13
57,1:5
57,2:5
57,3:5
57,4:5
57,5:5
57,6:5
57,7:5
57,9:5
57,11:5
57,16:8
57,18:8
57,19:8
57,20:8
57,21:8
57,22:8
57,23:8
57,24:8
57,25:2
57,26:2
57,27:2
57,28:3
57,29:3
57,30:2
57,31:3
57,32:9
57,33:9
57,34:9
57,35:9
57,36:5
57,37:5
57,38:5
57,39:5
57,40:1
57,41:1
57,42:1
57,43:11
57,44:1
57,45:11
57,46:11
57,47:11
57,48:8
57,49:11
57,50:1
57,51:1
57,52:1
57,53:8
57,54:11
57,55:1
57,56:1
57,57:1
57,68:13
57,69:13
57,70:13
57,71:13
57,72:13
57,80:13
58,16:1
58,18:1
58,19:1
58,20:1
58,21:1
58,22:1
58,23:1
58,24:1
58,32:2
58,33:2
58,34:2
58,35:2
58,43:4
58,45:4
58,46:4
58,47:4
58,48:1
58,49:4
58,53:1
58,54:4
58,58:1
58,59:1
58,60:1
58,61:1
58,64:1
58,66:1
58,68:6
58,69:6
58,70:6
58,71:6
58,72:6
58,80:6
59,16:1
59,18:1
59,19:1
59,20:1
59,21:1
59,22:1
59,23:1
59,24:1
59,32:2
59,33:2
59,34:2
59,35:2
59,43:4
59,45:4
59,46:4
59,47:4
59,48:1
59,49:4
59,53:1
59,54:4
59,58:1
59,59:1
59,60:1
59,61:1
59,64:1
59,66:1
59,68:6
59,69:6
59,70:6
59,71:6
59,72:6
59,80:6
60,16:1
60,18:1
60,19:1
60,20:1
60,21:1
60,22:1
60,23:1
60,24:1
60,32:2
60,33:2
60,34:2
60,35:2
60,43:4
60,45:4
60,46:4
60,47:4
60,48:1
60,49:4
60,53:1
60,54:4
60,58:1
60,59:1
60,60:1
60,61:1
60,64:1
60,66:1
60,68:6
60,69:6
60,70:6
60,71:6
60,72:6
60,80:6
61,16:1
61,18:1
61,19:1
61,20:1
61,21:1
61,22:1
61,23:1
61,24:1
61,32:2
61,33:2
61,34:2
61,35:2
61,43:4
61,45:4
61,46:4
61,47:4
61,48:1
61,49:4
61,53:1
61,54:4
61,58:1
61,59:1
61,60:1
61,61:1
61,64:1
61,66:1
61,68:6
61,69:6
61,70:6
61,71:6
61,72:6
61,80:6
62,1:5
62,2:5
62,3:5
62,4:5
62,5:5
62,6:5
62,7:5
62,9:5
62,11:5
62,16:8
62,18:8
62,19:8
62,20:8
62,21:8
62,22:8
62,23:8
62,24:8
62,25:2
62,26:2
62,27:2
62,28:3
62,29:3
62,30:2
62,31:3
62,32:9
62,33:9
62,34:9
62,35:9
62,36:5
62,37:5
62,38:5
62,39:5
62,40:1
62,41:1
62,42:1
62,43:11
62,44:1
62,45:11
62,46:11
62,47:11
62,48:8
62,49:11
62,50:1
62,51:1
62,52:1
62,53:8
62,54:11
62,55:1
62,56:1
62,57:1
62,58:8
62,59:8
62,60:8
62,61:8
62,62:1
62,63:1
62,64:8
62,65:1
62,66:8
62,68:13
62,69:13
62,70:13
62,71:13
62,72:13
62,80:13
63,1:5
63,2:5
63,3:5
63,4:5
63,5:5
63,6:5
63,7:5
63,9:5
63,11:5
63,16:8
63,18:8
63,19:8
63,20:8
63,21:8
63,22:8
63,23:8
63,24:8
63,25:2
63,26:2
63,27:2
63,28:3
63,29:3
63,30:2
63,31:3
63,32:9
63,33:9
63,34:9
63,35:9
63,36:5
63,37:5
63,38:5
63,39:5
63,40:1
63,41:1
63,42:1
63,43:11
63,44:1
63,45:11
63,46:11
63,47:11
63,48:8
63,49:11
63,50:1
63,51:1
63,52:1
63,53:8
63,54:11
63,55:1
63,56:1
63,57:1
63,58:8
63,59:8
63,60:8
63,61:8
63,62:1
63,63:1
63,64:8
63,65:1
63,66:8
63,68:13
63,69:13
63,70:13
63,71:13
63,72:13
63,80:13
64,16:1
64,18:1
64,19:1
64,20:1
64,21:1
64,22:1
64,23:1
64,24:1
64,32:2
64,33:2
64,34:2
64,35:2
64,43:4
64,45:4
64,46:4
64,47:4
64,48:1
64,49:4
64,53:1
64,54:4
64,58:1
64,59:1
64,60:1
64,61:1
64,64:1
64,66:1
64,68:6
64,69:6
64,70:6
64,71:6
64,72:6
64,80:6
65,1:5
65,2:5
65,3:5
65,4:5
65,5:5
65,6:5
65,7:5
65,9:5
65,11:5
65,16:8
65,18:8
65,19:8
65,20:8
65,21:8
65,22:8
65,23:8
65,24:8
65,25:2
65,26:2
65,27:2
65,28:3
65,29:3
65,30:2
65,31:3
65,32:9
65,33:9
65,34:9
65,35:9
65,36:5
65,37:5
65,38:5
65,39:5
65,40:1
65,41:1
65,42:1
65,43:11
65,44:1
65,45:11
65,46:11
65,47:11
65,48:8
65,49:11
65,50:1
65,51:1
65,52:1
65,53:8
65,54:11
65,55:1
65,56:1
65,57:1
65,58:8
65,59:8
65,60:8
65,61:8
65,62:1
65,63:1
65,64:8
65,65:1
65,66:8
65,68:13
65,69:13
65,70:13
65,71:13
65,72:13
65,80:13
66,16:1
66,18:1
66,19:1
66,20:1
66,21:1
66,22:1
66,23:1
66,24:1
66,32:2
66,33:2
66,34:2
66,35:2
66,43:4
66,45:4
66,46:4
66,47:4
66,48:1
66,49:4
66,53:1
66,54:4
66,58:1
66,59:1
66,60:1
66,61:1
66,64:1
66,66:1
66,68:6
66,69:6
66,70:6
66,71:6
66,72:6
66,80:6
67,16:1
67,18:1
67,19:1
67,20:1
67,21:1
67,22:1
67,23:1
67,24:1
67,32:2
67,33:2
67,34:2
67,35:2
67,43:4
67,45:4
67,46:4
67,47:4
67,48:1
67,49:4
67,53:1
67,54:4
67,58:1
67,59:1
67,60:1
67,61:1
67,64:1
67,66:1
67,67:1
67,68:6
67,69:6
67,70:6
67,71:6
67,72:6
67,80:6
68,68:1
68,69:1
68,70:1
68,71:1
68,73:1
68,74:1
69,68:1
69,69:1
69,70:1
69,71:1
69,73:1
69,74:1
70,68:1
70,69:1
70,70:1
70,71:1
70,73:1
70,74:1
71,68:1
71,69:1
71,70:1
71,71:1
71,72:1
71,80:1
72,68:1
72,69:1
72,70:1
72,71:1
72,72:1
72,73:1
72,74:1
73,68:1
73,69:1
73,70:1
73,71:1
73,72:1
73,73:1
73,80:1
74,68:1
74,69:1
74,70:1
74,71:1
74,72:1
74,73:1
74,74:1
74,80:1
75,16:3
75,18:3
75,19:3
75,20:3
75,21:3
75,22:3
75,23:3
75,24:3
75,32:4
75,33:4
75,34:4
75,35:4
75,43:6
75,45:6
75,46:6
75,47:6
75,48:3
75,49:6
75,53:3
75,54:6
75,58:3
75,59:3
75,60:3
75,61:3
75,64:3
75,66:3
75,67:3
75,68:8
75,69:8
75,70:8
75,71:8
75,72:8
75,73:8
75,74:8
75,75:1
75,76:1
75,80:8
76,16:3
76,18:3
76,19:3
76,20:3
76,21:3
76,22:3
76,23:3
76,24:3
76,32:4
76,33:4
76,34:4
76,35:4
76,43:6
76,45:6
76,46:6
76,47:6
76,48:3
76,49:6
76,53:3
76,54:6
76,58:3
76,59:3
76,60:3
76,61:3
76,64:3
76,66:3
76,67:3
76,68:8
76,69:8
76,70:8
76,71:8
76,72:8
76,73:8
76,74:8
76,75:1
76,76:1
76,77:1
76,78:1
76,79:1
76,80:8
77,16:3
77,18:3
77,19:3
77,20:3
77,21:3
77,22:3
77,23:3
77,24:3
77,32:4
77,33:4
77,34:4
77,35:4
77,43:6
77,45:6
77,46:6
77,47:6
77,48:3
77,49:6
77,53:3
77,54:6
77,58:3
77,59:3
77,60:3
77,61:3
77,64:3
77,66:3
77,67:3
77,68:8
77,69:8
77,70:8
77,71:8
77,72:8
77,73:8
77,74:8
77,75:1
77,76:1
77,77:1
77,80:8
78,16:3
78,18:3
78,19:3
78,20:3
78,21:3
78,22:3
78,23:3
78,24:3
78,32:4
78,33:4
78,34:4
78,35:4
78,43:6
78,45:6
78,46:6
78,47:6
78,48:3
78,49:6
78,53:3
78,54:6
78,58:3
78,59:3
78,60:3
78,61:3
78,64:3
78,66:3
78,67:3
78,68:8
78,69:8
78,70:8
78,71:8
78,72:8
78,73:8
78,74:8
78,75:1
78,76:1
78,77:1
78,78:1
78,80:8
79,16:3
79,18:3
79,19:3
79,20:3
79,21:3
79,22:3
79,23:3
79,24:3
79,32:4
79,33:4
79,34:4
79,35:4
79,43:6
79,45:6
79,46:6
79,47:6
79,48:3
79,49:6
79,53:3
79,54:6
79,58:3
79,59:3
79,60:3
79,61:3
79,64:3
79,66:3
79,67:3
79,68:8
79,69:8
79,70:8
79,71:8
79,72:8
79,73:8
79,74:8
79,75:1
79,76:1
79,77:1
79,78:1
79,79:1
79,80:8
80,68:1
80,69:1
80,70:1
80,71:1
80,72:1
80,73:1
80,74:1
80,80:1
81,16:3
81,18:3
81,19:3
81,20:3
81,21:3
81,22:3
81,23:3
81,24:3
81,32:4
81,33:4
81,34:4
81,35:4
81,43:6
81,45:6
81,46:6
81,47:6
81,48:3
81,49:6
81,53:3
81,54:6
81,58:3
81,59:3
81,60:3
81,61:3
81,64:3
81,66:3
81,67:3
81,68:8
81,69:8
81,70:8
81,71:8
81,72:8
81,73:8
81,74:8
81,75:1
81,76:1
81,77:1
81,78:1
81,79:1
81,80:8
81,81:1
82,16:3
82,18:3
82,19:3
82,20:3
82,21:3
82,22:3
82,23:3
82,24:3
82,32:4
82,33:4
82,34:4
82,35:4
82,43:6
82,45:6
82,46:6
82,47:6
82,48:3
82,49:6
82,53:3
82,54:6
82,58:3
82,59:3
82,60:3
82,61:3
82,64:3
82,66:3
82,67:3
82,68:8
82,69:8
82,70:8
82,71:8
82,72:8
82,73:8
82,74:8
82,75:1
82,76:1
82,77:1
82,78:1
82,79:1
82,80:8
82,81:1
82,82:1
82,85:1
83,1:3
83,2:3
83,3:3
83,4:3
83,5:3
83,6:3
83,7:3
83,9:3
83,11:3
83,16:6
83,18:6
83,19:6
83,20:6
83,21:6
83,22:6
83,23:6
83,24:6
83,28:1
83,29:1
83,31:1
83,32:7
83,33:7
83,34:7
83,35:7
83,36:3
83,37:3
83,38:3
83,39:3
83,43:9
83,45:9
83,46:9
83,47:9
83,48:6
83,49:9
83,53:6
83,54:9
83,58:6
83,59:6
83,60:6
83,61:6
83,64:6
83,66:6
83,67:6
83,68:11
83,69:11
83,70:11
83,71:11
83,72:11
83,73:11
83,74:11
83,75:4
83,76:4
83,77:4
83,78:4
83,79:4
83,80:11
83,81:4
83,82:4
83,83:1
83,84:1
83,85:4
84,1:3
84,2:3
84,3:3
84,4:3
84,5:3
84,6:3
84,7:3
84,9:3
84,11:3
84,16:6
84,18:6
84,19:6
84,20:6
84,21:6
84,22:6
84,23:6
84,24:6
84,28:1
84,29:1
84,31:1
84,32:7
84,33:7
84,34:7
84,35:7
84,36:3
84,37:3
84,38:3
84,39:3
84,43:9
84,45:9
84,46:9
84,47:9
84,48:6
84,49:9
84,53:6
84,54:9
84,58:6
84,59:6
84,60:6
84,61:6
84,64:6
84,66:6
84,67:6
84,68:11
84,69:11
84,70:11
84,71:11
84,72:11
84,73:11
84,74:11
84,75:4
84,76:4
84,77:4
84,78:4
84,79:4
84,80:11
84,81:4
84,82:4
84,83:1
84,84:1
84,85:4
85,16:3
85,18:3
85,19:3
85,20:3
85,21:3
85,22:3
85,23:3
85,24:3
85,32:4
85,33:4
85,34:4
85,35:4
85,43:6
85,45:6
85,46:6
85,47:6
85,48:3
85,49:6
85,53:3
85,54:6
85,58:3
85,59:3
85,60:3
85,61:3
85,64:3
85,66:3
85,67:3
85,68:8
85,69:8
85,70:8
85,71:8
85,72:8
85,73:8
85,74:8
85,75:1
85,76:1
85,77:1
85,78:1
85,79:1
85,80:8
85,81:1
85,82:1
85,85:1
86,1:3
86,2:3
86,3:3
86,4:3
86,5:3
86,6:3
86,7:3
86,9:3
86,11:3
86,16:6
86,18:6
86,19:6
86,20:6
86,21:6
86,22:6
86,23:6
86,24:6
86,28:1
86,29:1
86,31:1
86,32:7
86,33:7
86,34:7
86,35:7
86,36:3
86,37:3
86,38:3
86,39:3
86,43:9
86,45:9
86,46:9
86,47:9
86,48:6
86,49:9
86,53:6
86,54:9
86,58:6
86,59:6
86,60:6
86,61:6
86,64:6
86,66:6
86,67:6
86,68:11
86,69:11
86,70:11
86,71:11
86,72:11
86,73:11
86,74:11
86,75:4
86,76:4
86,77:4
86,78:4
86,79:4
86,80:11
86,81:4
86,82:4
86,83:1
86,84:1
86,85:4
86,86:1
87,1:3
87,2:3
87,3:3
87,4:3
87,5:3
87,6:3
87,7:3
87,9:3
87,11:3
87,16:6
87,18:6
87,19:6
87,20:6
87,21:6
87,22:6
87,23:6
87,24:6
87,28:1
87,29:1
87,31:1
87,32:7
87,33:7
87,34:7
87,35:7
87,36:3
87,37:3
87,38:3
87,39:3
87,43:9
87,45:9
87,46:9
87,47:9
87,48:6
87,49:9
87,53:6
87,54:9
87,58:6
87,59:6
87,60:6
87,61:6
87,64:6
87,66:6
87,67:6
87,68:11
87,69:11
87,70:11
87,71:11
87,72:11
87,73:11
87,74:11
87,75:4
87,76:4
87,77:4
87,78:4
87,79:4
87,80:11
87,81:4
87,82:4
87,83:1
87,84:1
87,85:4
87,86:1
87,87:1
88,1:3
88,2:3
88,3:3
88,4:3
88,5:3
88,6:3
88,7:3
88,9:3
88,11:3
88,16:6
88,18:6
88,19:6
88,20:6
88,21:6
88,22:6
88,23:6
88,24:6
88,28:1
88,29:1
88,31:1
88,32:7
88,33:7
88,34:7
88,35:7
88,36:3
88,37:3
88,38:3
88,39:3
88,43:9
88,45:9
88,46:9
88,47:9
88,48:6
88,49:9
88,53:6
88,54:9
88,58:6
88,59:6
88,60:6
88,61:6
88,64:6
88,66:6
88,67:6
88,68:11
88,69:11
88,70:11
88,71:11
88,72:11
88,73:11
88,74:11
88,75:4
88,76:4
88,77:4
88,78:4
88,79:4
88,80:11
88,81:4
88,82:4
88,83:1
88,84:1
88,85:4
88,86:1
88,87:1
88,88:1
88,89:1
89,1:3
89,2:3
89,3:3
89,4:3
89,5:3
89,6:3
89,7:3
89,9:3
89,11:3
89,16:6
89,18:6
89,19:6
89,20:6
89,21:6
89,22:6
89,23:6
89,24:6
89,28:1
89,29:1
89,31:1
89,32:7
89,33:7
89,34:7
89,35:7
89,36:3
89,37:3
89,38:3
89,39:3
89,43:9
89,45:9
89,46:9
89,47:9
89,48:6
89,49:9
89,53:6
89,54:9
89,58:6
89,59:6
89,60:6
89,61:6
89,64:6
89,66:6
89,67:6
89,68:11
89,69:11
89,70:11
89,71:11
89,72:11
89,73:11
89,74:11
89,75:4
89,76:4
89,77:4
89,78:4
89,79:4
89,80:11
89,81:4
89,82:4
89,83:1
89,84:1
89,85:4
89,86:1
89,87:1
89,88:1
89,89:1

<end>

<optimal SALBP-1 value>
13


<rand seed>
467321153

<Lower Bounds>
Lm1=12
Lms1=12
Lm2=1
Lm3=2
Lm4=12
Best=12

<Optimal Stations (Iterations: 10)>
15
